&control
    calculation = 'scf',
    restart_mode = 'from_scratch',
    prefix = 'Si',
    pseudo_dir = '../../',
    outdir = './',
    tstress = .true.
/

&system
    ibrav =  0,
    nat = 8,
    ntyp = 1,
    ecutwfc = 60,
/

&electrons
    conv_thr =  1.0d-6
/

&ions
/

&cell
/

ATOMIC_SPECIES
Si  28.0855  Si_Pot

ATOMIC_POSITIONS (alat)
Si       0.753515823   0.753515823   0.251171011
Si      -0.000000000   0.502343417   0.502343417
Si       0.753515823   0.251171011   0.753515823
Si       0.000000000   0.000000000   0.000000000
Si       0.251171011   0.753515823   0.753515823
Si       0.502343417   0.502343417  -0.000000000
Si       0.251171011   0.251171011   0.251171011
Si       0.502343417  -0.000000000   0.502343417

K_POINTS AUTOMATIC
6 6 6 0 0 0

CELL_PARAMETERS (angstrom)
   5.578600426  -0.000000000   0.000000000
   0.000000000   5.578600426   0.000000000
  -0.000000000  -0.000000000   5.578600426
