&CONTROL
    calculation = 'scf',
    restart_mode = 'from_scratch',
    prefix = 'CsCl',
    pseudo_dir = '../../',
    outdir = './',
    tstress = .true.
/

&SYSTEM
    ibrav = 0,
    nat = 2,                      
    ntyp = 2,
    ecutwfc = 60,
/

&ELECTRONS
    conv_thr =  1.0d-6
/

&IONS
/

&CELL
/

ATOMIC_SPECIES
Cs  132.90545  Cs_Pot
Cl  35.453     Cl_Pot

ATOMIC_POSITIONS (alat)
Cs   0.0000000000000000    0.0000000000000000    0.0000000000000000 
Cl   0.5000000000000000    0.5000000000000000    0.5000000000000000 

K_POINTS AUTOMATIC
4 4 4 0 0 0

CELL_PARAMETERS {angstrom}
   4.065643382   0.000000000   0.000000000
   0.000000000   4.065643382   0.000000000
   0.000000000   0.000000000   4.065643382


