&control
    calculation = 'vc-relax',
    restart_mode = 'from_scratch',
    prefix = 'Si',
    pseudo_dir = '../',
    outdir = './',
/

&system
    ibrav =  0,
    nat = 8,
    ntyp = 1,
    ecutwfc = 60,
/

&electrons
    electron_maxstep = 100
    conv_thr =  1.0d-6
/

&ions
/

&cell
/

ATOMIC_SPECIES
Si  28.0855  Si_Pot

ATOMIC_POSITIONS (alat)
Si   0.7500000000000000    0.7500000000000000    0.2500000000000000
Si   0.0000000000000000    0.5000000000000000    0.5000000000000000
Si   0.7500000000000000    0.2500000000000000    0.7500000000000000
Si   0.0000000000000000    0.0000000000000000    0.0000000000000000
Si   0.2500000000000000    0.7500000000000000    0.7500000000000000
Si   0.5000000000000000    0.5000000000000000    0.0000000000000000
Si   0.2500000000000000    0.2500000000000000    0.2500000000000000
Si   0.5000000000000000    0.0000000000000000    0.5000000000000000

K_POINTS AUTOMATIC
6 6 6 0 0 0

CELL_PARAMETERS {angstrom}
   5.4437023729394527    0.0000000000000000    0.0000000000000003
   0.0000000000000009    5.4437023729394527    0.0000000000000003
   0.0000000000000000    0.0000000000000000    5.4437023729394527
