&CONTROL
    calculation = 'scf',
    restart_mode = 'from_scratch',
    prefix = 'ZrC',
    pseudo_dir = '../../',
    outdir = './',
    tstress = .true.
/

&SYSTEM
    ibrav = 0,
    nat = 8,                      
    ntyp = 2,
    ecutwfc = 80,
/

&ELECTRONS
    conv_thr =  1.0d-6
/

&IONS
/

&CELL
/

ATOMIC_SPECIES
Zr  91.224  Zr_Pot
C   12.011  C_Pot

ATOMIC_POSITIONS (alat)
Zr   0.000000000    0.000000000    0.000000000 
Zr   0.000000000    0.500000000    0.500000000
Zr   0.500000000    0.000000000    0.500000000
Zr   0.500000000    0.500000000    0.000000000
C   0.000000000    0.000000000    0.500000000
C   0.000000000    0.500000000    0.000000000
C   0.500000000    0.000000000    0.000000000
C   0.500000000    0.500000000    0.500000000

K_POINTS AUTOMATIC
14 14 14 0 0 0

CELL_PARAMETERS {angstrom}
   4.670912291   0.000000000   0.000000000
   0.000000000   4.670912291   0.000000000
   0.000000000   0.000000000   4.670912291


