&CONTROL
    calculation = 'vc-relax',
    restart_mode = 'from_scratch',
    prefix = 'ZrC',
    pseudo_dir = '../',
    outdir = './',
/

&SYSTEM
    ibrav = 0,
    nat = 8,                      
    ntyp = 2,
    ecutwfc = 80,
/

&ELECTRONS
    electron_maxstep = 500
    conv_thr =  1.0d-6
/

&IONS
/

&CELL
/

ATOMIC_SPECIES
Zr  91.224  Zr_Pot
C   12.011  C_Pot

ATOMIC_POSITIONS (alat)
Zr   0.000000000    0.000000000    0.000000000 
Zr   0.000000000    0.500000000    0.500000000
Zr   0.500000000    0.000000000    0.500000000
Zr   0.500000000    0.500000000    0.000000000
C   0.000000000    0.000000000    0.500000000
C   0.000000000    0.500000000    0.000000000
C   0.500000000    0.000000000    0.000000000
C   0.500000000    0.500000000    0.500000000

K_POINTS AUTOMATIC
6 6 6 0 0 0

CELL_PARAMETERS {angstrom}
   4.7128663821868315    0.0000000000000000    0.0000000000000003
   0.0000000000000008    4.7128663821868315    0.0000000000000003
   0.0000000000000000    0.0000000000000000    4.7128663821868315


